0
0
0
0
18
0
0
0
0
0
0
0
0
0
0
0
0
0
0
0
0
0
0
1 2 0
1 3 0
1 4 0
1 5 0
1 6 1
1 7 0
1 8 0
1 9 0
1 10 0
1 11 1
1 12 1
1 13 0
1 14 1
1 15 1
1 16 0
1 17 1
1 18 1
2 3 1
2 4 0
2 5 1
2 6 1
2 7 0
2 8 0
2 9 1
2 10 1
2 11 0
2 12 1
2 13 1
2 14 1
2 15 0
2 16 1
2 17 0
2 18 1
3 4 1
3 5 1
3 6 0
3 7 0
3 8 1
3 9 1
3 10 1
3 11 0
3 12 1
3 13 1
3 14 0
3 15 0
3 16 1
3 17 1
3 18 0
4 5 0
4 6 1
4 7 1
4 8 0
4 9 0
4 10 0
4 11 0
4 12 0
4 13 1
4 14 1
4 15 0
4 16 0
4 17 1
4 18 0
5 6 0
5 7 1
5 8 0
5 9 1
5 10 0
5 11 1
5 12 0
5 13 0
5 14 0
5 15 0
5 16 1
5 17 0
5 18 1
6 7 1
6 8 1
6 9 1
6 10 0
6 11 1
6 12 1
6 13 1
6 14 0
6 15 1
6 16 1
6 17 1
6 18 1
7 8 0
7 9 1
7 10 1
7 11 0
7 12 0
7 13 1
7 14 1
7 15 1
7 16 1
7 17 1
7 18 1
8 9 1
8 10 1
8 11 1
8 12 0
8 13 0
8 14 0
8 15 1
8 16 1
8 17 1
8 18 0
9 10 1
9 11 0
9 12 0
9 13 1
9 14 1
9 15 1
9 16 0
9 17 1
9 18 1
10 11 0
10 12 1
10 13 0
10 14 1
10 15 0
10 16 1
10 17 1
10 18 0
11 12 1
11 13 0
11 14 0
11 15 0
11 16 0
11 17 0
11 18 0
12 13 0
12 14 1
12 15 1
12 16 0
12 17 1
12 18 0
13 14 1
13 15 0
13 16 0
13 17 1
13 18 0
14 15 0
14 16 1
14 17 1
14 18 1
15 16 0
15 17 0
15 18 1
16 17 0
16 18 1
17 18 1
